p cnf 7230 17
-5309 -5593 5788 0
5309 -5788 0
-5323 -5597 -5793 0
-4908 -5623 5791 0
-5311 -5595 -5789 0
5323 -5794 0
4908 -5792 0
5311 -5790 0
5793 5794 0
-5791 5792 0
5789 5790 0
5597 -5794 0
5623 -5792 0
5595 -5790 0
5599 -5796 0
5787 5788 0
-5787 -5788 0
